178249
[0, 57, 23, 101, 13, 46, 60, 102, 3, 14, 90, 78, 42, 34, 74, 31, 6, 17, 48, 36, 38, 72, 47, 84, 69, 93, 77, 2, 100, 37, 103, 66, 40, 10, 94, 53, 70, 35, 104, 95, 59, 52, 83, 32, 1, 81, 50, 99, 98, 67, 18, 41, 80, 49, 25, 33, 8, 82, 56, 22, 91, 79, 88, 92, 11, 71, 44, 24, 61, 21, 85, 45, 76, 5, 39, 55, 19, 15, 63, 89, 16, 20, 68, 87, 12, 30, 64, 51, 4, 54, 28, 29, 97, 105, 96, 7, 62, 73, 75, 86, 27, 26, 9, 43, 58, 65, 0]
